cliques=[{0,2,4,6,10,16,18,23,25},{0,1,49,50,72,73,75,78,80},{0,2,4,6,10,16,18,23,25},{2,3,22,44,53,56,68,69,70,71,82,83},{0,2,4,6,10,16,18,23,25},{4,5,20,21,38,39,43,76,87,89},{0,2,4,6,10,16,18,23,25},{6,7,8,9,33,35,55,58,63,88},{6,7,8,9,33,35,55,58,63,88},{1,9,13,15,22,27,31},{0,2,4,6,10,16,18,23,25},{10,11,30,31,47,48,77,84},{12,13,18,19,40,45,46,85,86},{1,9,13,15,22,27,31},{14,15,23,24,28,29,32,34,36,37,54,57},{1,9,13,15,22,27,31},{0,2,4,6,10,16,18,23,25},{12,17,39,47,53,54,63,75},{0,2,4,6,10,16,18,23,25},{12,13,19,18,40,45,46,85,86},{4,5,20,21,38,39,43,76,87,89},{4,5,20,21,38,39,43,76,87,89},{1,9,13,15,22,27,31},{0,2,4,6,10,16,18,23,25},{14,15,24,23,28,29,32,34,36,37,54,57},{0,2,4,6,10,16,18,23,25},{26,28,30,33,43,49,65,69,85},{1,9,13,15,22,27,31},{14,15,23,24,28,29,32,34,36,37,54,57},{14,15,23,24,28,29,32,34,36,37,54,57},{10,11,30,31,47,48,77,84},{1,9,13,15,22,27,31},{14,15,23,24,28,29,32,34,36,37,54,57},{6,7,8,9,33,35,55,58,63,88},{14,15,23,24,28,29,32,34,36,37,54,57},{6,7,8,9,33,35,55,58,63,88},{14,15,23,24,28,29,32,34,36,37,54,57},{3,21,35,37,46,48,66},{4,5,20,21,38,39,43,76,87,89},{4,5,20,21,38,39,43,76,87,89},{12,13,18,19,40,45,46,85,86},{8,20,32,41,59,62,70,86},{5,42,44,52,57,67},{4,5,20,21,38,39,43,76,87,89},{2,3,22,44,53,56,68,69,70,71,82,83},{12,13,18,19,40,45,46,85,86},{3,21,35,37,46,48,66},{10,11,30,31,47,48,77,84},{3,21,35,37,46,48,66},{0,1,49,50,72,73,75,78,80},{0,1,49,50,72,73,75,78,80},{27,51,52,61,62,79,81},{5,42,44,52,57,67},{2,3,22,44,53,56,68,69,70,71,82,83},{14,15,23,24,28,29,32,34,36,37,54,57},{6,7,8,9,33,35,55,58,63,88},{2,3,22,44,53,56,68,69,70,71,82,83},{14,15,23,24,28,29,32,34,36,37,54,57},{6,7,8,9,33,35,55,58,63,88},{8,20,32,41,59,62,70,86},{7,29,60,76,78,81,83},{24,38,45,61,73,74,77,82,91},{8,20,32,41,59,62,70,86},{6,7,8,9,33,35,55,58,63,88},{14,19,55,64,68,72,79,84,90},{16,17,59,60,65,64,66,67,74},{3,21,35,37,46,48,66},{5,42,44,52,57,67},{2,3,22,44,53,56,68,69,70,71,82,83},{2,3,22,44,53,56,69,68,70,71,82,83},{2,3,22,44,53,56,68,69,70,71,82,83},{2,3,22,44,53,56,68,69,71,70,82,83},{0,1,49,50,72,73,75,78,80},{0,1,49,50,73,72,75,78,80},{16,17,59,60,64,65,66,67,74},{0,1,49,50,72,73,75,78,80},{4,5,20,21,38,39,43,76,87,89},{10,11,30,31,47,48,77,84},{0,1,49,50,72,73,75,78,80},{14,19,55,64,68,72,79,84,90},{0,1,49,50,72,73,75,78,80},{7,29,60,76,78,81,83},{2,3,22,44,53,56,68,69,70,71,82,83},{2,3,22,44,53,56,68,69,70,71,82,83},{10,11,30,31,47,48,77,84},{12,13,18,19,40,45,46,85,86},{12,13,18,19,40,45,46,85,86},{4,5,20,21,38,39,43,76,87,89},{6,7,8,9,33,35,55,58,63,88},{4,5,20,21,38,39,43,76,87,89},{14,19,55,64,68,72,79,84,90},{24,38,45,61,73,74,77,82,91},{25,26,41,42,90,91,92}];
nr_cliques=93;
